minimize
obj: 20 p_1_ + 20 p_2_ + 4.5 x_1__out + 5.1000000000000005 x_2__out + 8 x_3__out + 5.1000000000000005 x_4__out + 1.5 x_5__out + 7.800000000000001 x_6__out + 1 x15
subject to
knapsack_1_: 70 x_1__in + 6 x_1__out + 29 x_2__in + 22 x_2__out + 85 x_3__in + 35 x_3__out + 9 x_4__in + 34 x_4__out + 4 x_5__in + 73 x_5__out + 99 x_6__in + 65 x_6__out + 1 p_1_ >= 398.25
knapsack_2_: 88 x_1__in + 2 x_1__out + 43 x_2__in + 89 x_2__out + 100 x_3__in + 71 x_3__out + 22 x_4__in + 100 x_4__out + 61 x_5__in + 5 x_5__out + 38 x_6__in + 21 x_6__out + 1 p_2_ >= 480
Bounds
0 <= x_1__in <= 1
x_1__out >= 0
0 <= x_2__in <= 1
x_2__out >= 0
0 <= x_3__in <= 1
x_3__out >= 0
0 <= x_4__in <= 1
x_4__out >= 0
0 <= x_5__in <= 1
x_5__out >= 0
0 <= x_6__in <= 1
x_6__out >= 0
p_1_ >= 0
p_2_ >= 0
x15 = 0
General
p_1_
p_2_
Binary
x_1__out
x_2__out
x_3__out
x_4__out
x_5__out
x_6__out
End
